2
1000 2
129
266 1 3
267 1 3
268 1 5
269 1 7
270 1 4
271 1 3
272 1 3
273 1 7
274 1 6
275 1 4
276 1 5
277 1 3
278 1 8
279 1 4
280 1 5
281 1 4
282 1 2
283 1 4
284 1 5
285 1 3
286 1 5
287 1 7
288 1 7
289 1 2
290 1 4
291 1 6
292 1 2
293 1 2
294 1 3
295 1 2
296 1 6
297 1 5
298 1 1
299 1 3
300 1 6
301 1 2
302 1 3
303 1 3
304 1 3
305 1 4
306 1 6
307 1 1
308 1 3
309 1 2
310 1 2
311 1 3
312 1 4
313 1 5
314 1 6
315 1 3
316 1 4
317 1 6
318 1 5
319 1 4
320 1 3
321 1 4
322 1 3
323 1 9
324 1 2
325 1 5
326 1 4
327 1 6
328 1 6
330 1 2
331 1 4
332 1 3
333 1 3
334 1 4
335 1 7
336 1 2
337 1 4
338 1 4
339 1 5
340 1 1
341 1 5
342 1 3
343 1 5
344 1 6
345 1 2
346 1 3
347 1 4
348 1 7
349 1 3
350 1 5
351 1 5
352 1 1
353 1 7
354 1 3
355 1 1
357 1 5
358 1 1
359 1 6
360 1 3
361 1 3
362 1 4
363 1 3
364 1 6
365 1 3
366 1 2
367 1 4
368 1 3
369 1 3
370 1 3
371 1 4
372 1 6
373 1 3
374 1 6
375 1 2
376 1 4
377 1 7
378 1 2
379 1 6
380 1 2
381 1 1
382 1 2
383 1 1
384 1 3
385 1 3
386 1 7
387 1 3
388 1 3
389 1 7
390 1 1
391 1 3
392 1 3
393 1 3
394 1 4
395 1 2
396 1 4
